0000000000000000
0000000000000000
0011000000001100
0001100000001100
0000110000001100
0000011000011000
0000111100110000
0001100111100000
0011000011000000
0011000001100000
0011000000110000
0011000000011000
0011000000001100
0000000000000000
0000000000000000
0000000000000000
